inputs/factoring127-7bit.dimacs
p cnf 441 1055
c Factors encoded in variables 1-7 and 8-14
c Target number: 127
-15 0
16 0
-66 18 24 0
-66 -18 -24 0
66 18 -24 0
66 -18 24 0
-18 -24 67 0
18 24 -67 0
18 -67 0
24 -67 0
-19 -25 69 0
-19 -67 69 0
-25 -67 69 0
19 25 -69 0
19 67 -69 0
25 67 -69 0
-20 -26 71 0
-20 -69 71 0
-26 -69 71 0
20 26 -71 0
20 69 -71 0
26 69 -71 0
-21 -27 73 0
-21 -71 73 0
-27 -71 73 0
21 27 -73 0
21 71 -73 0
27 71 -73 0
-22 -28 75 0
-22 -73 75 0
-28 -73 75 0
22 28 -75 0
22 73 -75 0
28 73 -75 0
-23 -29 77 0
-23 -75 77 0
-29 -75 77 0
23 29 -77 0
23 75 -77 0
29 75 -77 0
-78 30 77 0
-78 -30 -77 0
78 30 -77 0
78 -30 77 0
-30 -77 79 0
30 77 -79 0
30 -79 0
77 -79 0
-80 32 38 0
-80 -32 -38 0
80 32 -38 0
80 -32 38 0
-32 -38 81 0
32 38 -81 0
32 -81 0
38 -81 0
-33 -39 83 0
-33 -81 83 0
-39 -81 83 0
33 39 -83 0
33 81 -83 0
39 81 -83 0
-34 -40 85 0
-34 -83 85 0
-40 -83 85 0
34 40 -85 0
34 83 -85 0
40 83 -85 0
-35 -41 87 0
-35 -85 87 0
-41 -85 87 0
35 41 -87 0
35 85 -87 0
41 85 -87 0
-36 -42 89 0
-36 -87 89 0
-42 -87 89 0
36 42 -89 0
36 87 -89 0
42 87 -89 0
-37 -43 91 0
-37 -89 91 0
-43 -89 91 0
37 43 -91 0
37 89 -91 0
43 89 -91 0
-92 44 91 0
-92 -44 -91 0
92 44 -91 0
92 -44 91 0
-44 -91 93 0
44 91 -93 0
44 -93 0
91 -93 0
-94 46 52 0
-94 -46 -52 0
94 46 -52 0
94 -46 52 0
-46 -52 95 0
46 52 -95 0
46 -95 0
52 -95 0
-47 -53 97 0
-47 -95 97 0
-53 -95 97 0
47 53 -97 0
47 95 -97 0
53 95 -97 0
-48 -54 99 0
-48 -97 99 0
-54 -97 99 0
48 54 -99 0
48 97 -99 0
54 97 -99 0
-49 -55 101 0
-49 -99 101 0
-55 -99 101 0
49 55 -101 0
49 99 -101 0
55 99 -101 0
-50 -56 103 0
-50 -101 103 0
-56 -101 103 0
50 56 -103 0
50 101 -103 0
56 101 -103 0
-51 -57 105 0
-51 -103 105 0
-57 -103 105 0
51 57 -105 0
51 103 -105 0
57 103 -105 0
-106 58 105 0
-106 -58 -105 0
106 58 -105 0
106 -58 105 0
-58 -105 107 0
58 105 -107 0
58 -107 0
105 -107 0
-108 76 59 0
-108 -76 -59 0
108 76 -59 0
108 -76 59 0
-76 -59 109 0
76 59 -109 0
76 -109 0
59 -109 0
-78 -60 111 0
-78 -109 111 0
-60 -109 111 0
78 60 -111 0
78 109 -111 0
60 109 -111 0
-79 -61 113 0
-79 -111 113 0
-61 -111 113 0
79 61 -113 0
79 111 -113 0
61 111 -113 0
-114 62 113 0
-114 -62 -113 0
114 62 -113 0
114 -62 113 0
-62 -113 115 0
62 113 -115 0
62 -115 0
113 -115 0
-116 63 115 0
-116 -63 -115 0
116 63 -115 0
116 -63 115 0
-63 -115 117 0
63 115 -117 0
63 -117 0
115 -117 0
-118 64 117 0
-118 -64 -117 0
118 64 -117 0
118 -64 117 0
-64 -117 119 0
64 117 -119 0
64 -119 0
117 -119 0
-120 65 119 0
-120 -65 -119 0
120 65 -119 0
120 -65 119 0
-65 -119 121 0
65 119 -121 0
65 -121 0
119 -121 0
-122 82 45 0
-122 -82 -45 0
122 82 -45 0
122 -82 45 0
-82 -45 123 0
82 45 -123 0
82 -123 0
45 -123 0
-84 -94 125 0
-84 -123 125 0
-94 -123 125 0
84 94 -125 0
84 123 -125 0
94 123 -125 0
-86 -96 127 0
-86 -125 127 0
-96 -125 127 0
86 96 -127 0
86 125 -127 0
96 125 -127 0
-88 -98 129 0
-88 -127 129 0
-98 -127 129 0
88 98 -129 0
88 127 -129 0
98 127 -129 0
-90 -100 131 0
-90 -129 131 0
-100 -129 131 0
90 100 -131 0
90 129 -131 0
100 129 -131 0
-92 -102 133 0
-92 -131 133 0
-102 -131 133 0
92 102 -133 0
92 131 -133 0
102 131 -133 0
-93 -104 135 0
-93 -133 135 0
-104 -133 135 0
93 104 -135 0
93 133 -135 0
104 133 -135 0
-136 106 135 0
-136 -106 -135 0
136 106 -135 0
136 -106 135 0
-106 -135 137 0
106 135 -137 0
106 -137 0
135 -137 0
-138 107 137 0
-138 -107 -137 0
138 107 -137 0
138 -107 137 0
-107 -137 139 0
107 137 -139 0
107 -139 0
137 -139 0
-140 68 31 0
-140 -68 -31 0
140 68 -31 0
140 -68 31 0
-68 -31 141 0
68 31 -141 0
68 -141 0
31 -141 0
-70 -80 143 0
-70 -141 143 0
-80 -141 143 0
70 80 -143 0
70 141 -143 0
80 141 -143 0
-72 -122 145 0
-72 -143 145 0
-122 -143 145 0
72 122 -145 0
72 143 -145 0
122 143 -145 0
-74 -124 147 0
-74 -145 147 0
-124 -145 147 0
74 124 -147 0
74 145 -147 0
124 145 -147 0
-108 -126 149 0
-108 -147 149 0
-126 -147 149 0
108 126 -149 0
108 147 -149 0
126 147 -149 0
-110 -128 151 0
-110 -149 151 0
-128 -149 151 0
110 128 -151 0
110 149 -151 0
128 149 -151 0
-112 -130 153 0
-112 -151 153 0
-130 -151 153 0
112 130 -153 0
112 151 -153 0
130 151 -153 0
-114 -132 155 0
-114 -153 155 0
-132 -153 155 0
114 132 -155 0
114 153 -155 0
132 153 -155 0
-116 -134 157 0
-116 -155 157 0
-134 -155 157 0
116 134 -157 0
116 155 -157 0
134 155 -157 0
-118 -136 159 0
-118 -157 159 0
-136 -157 159 0
118 136 -159 0
118 157 -159 0
136 157 -159 0
-120 -138 161 0
-120 -159 161 0
-138 -159 161 0
120 138 -161 0
120 159 -161 0
138 159 -161 0
-121 -139 163 0
-121 -161 163 0
-139 -161 163 0
121 139 -163 0
121 161 -163 0
139 161 -163 0
17 -1 -8 0
-17 1 0
-17 8 0
18 -2 -8 0
-18 2 0
-18 8 0
19 -3 -8 0
-19 3 0
-19 8 0
20 -4 -8 0
-20 4 0
-20 8 0
21 -5 -8 0
-21 5 0
-21 8 0
22 -6 -8 0
-22 6 0
-22 8 0
23 -7 -8 0
-23 7 0
-23 8 0
24 -1 -9 0
-24 1 0
-24 9 0
25 -2 -9 0
-25 2 0
-25 9 0
26 -3 -9 0
-26 3 0
-26 9 0
27 -4 -9 0
-27 4 0
-27 9 0
28 -5 -9 0
-28 5 0
-28 9 0
29 -6 -9 0
-29 6 0
-29 9 0
30 -7 -9 0
-30 7 0
-30 9 0
31 -1 -10 0
-31 1 0
-31 10 0
32 -2 -10 0
-32 2 0
-32 10 0
33 -3 -10 0
-33 3 0
-33 10 0
34 -4 -10 0
-34 4 0
-34 10 0
35 -5 -10 0
-35 5 0
-35 10 0
36 -6 -10 0
-36 6 0
-36 10 0
37 -7 -10 0
-37 7 0
-37 10 0
38 -1 -11 0
-38 1 0
-38 11 0
39 -2 -11 0
-39 2 0
-39 11 0
40 -3 -11 0
-40 3 0
-40 11 0
41 -4 -11 0
-41 4 0
-41 11 0
42 -5 -11 0
-42 5 0
-42 11 0
43 -6 -11 0
-43 6 0
-43 11 0
44 -7 -11 0
-44 7 0
-44 11 0
45 -1 -12 0
-45 1 0
-45 12 0
46 -2 -12 0
-46 2 0
-46 12 0
47 -3 -12 0
-47 3 0
-47 12 0
48 -4 -12 0
-48 4 0
-48 12 0
49 -5 -12 0
-49 5 0
-49 12 0
50 -6 -12 0
-50 6 0
-50 12 0
51 -7 -12 0
-51 7 0
-51 12 0
52 -1 -13 0
-52 1 0
-52 13 0
53 -2 -13 0
-53 2 0
-53 13 0
54 -3 -13 0
-54 3 0
-54 13 0
55 -4 -13 0
-55 4 0
-55 13 0
56 -5 -13 0
-56 5 0
-56 13 0
57 -6 -13 0
-57 6 0
-57 13 0
58 -7 -13 0
-58 7 0
-58 13 0
59 -1 -14 0
-59 1 0
-59 14 0
60 -2 -14 0
-60 2 0
-60 14 0
61 -3 -14 0
-61 3 0
-61 14 0
62 -4 -14 0
-62 4 0
-62 14 0
63 -5 -14 0
-63 5 0
-63 14 0
64 -6 -14 0
-64 6 0
-64 14 0
65 -7 -14 0
-65 7 0
-65 14 0
17 -16 0
-17 16 0
66 -16 0
-66 16 0
140 -16 0
-140 16 0
142 -16 0
-142 16 0
144 -16 0
-144 16 0
146 -16 0
-146 16 0
148 -16 0
-148 16 0
150 -15 0
-150 15 0
152 -15 0
-152 15 0
154 -15 0
-154 15 0
156 -15 0
-156 15 0
158 -15 0
-158 15 0
160 -15 0
-160 15 0
162 -15 0
-162 15 0
163 -15 0
-163 15 0
164 165 166 0
6 7 -166 0
4 5 -165 0
2 3 -164 0
167 168 169 0
13 14 -169 0
11 12 -168 0
9 10 -167 0
25 67 170 0
-68 19 -170 0
-25 67 171 0
-68 -19 -171 0
25 -67 172 0
-68 -19 -172 0
-25 -67 173 0
-68 19 -173 0
-25 -67 174 0
68 -19 -174 0
25 -67 175 0
68 19 -175 0
-25 67 176 0
68 19 -176 0
25 67 177 0
68 -19 -177 0
26 69 178 0
-70 20 -178 0
-26 69 179 0
-70 -20 -179 0
26 -69 180 0
-70 -20 -180 0
-26 -69 181 0
-70 20 -181 0
-26 -69 182 0
70 -20 -182 0
26 -69 183 0
70 20 -183 0
-26 69 184 0
70 20 -184 0
26 69 185 0
70 -20 -185 0
27 71 186 0
-72 21 -186 0
-27 71 187 0
-72 -21 -187 0
27 -71 188 0
-72 -21 -188 0
-27 -71 189 0
-72 21 -189 0
-27 -71 190 0
72 -21 -190 0
27 -71 191 0
72 21 -191 0
-27 71 192 0
72 21 -192 0
27 71 193 0
72 -21 -193 0
28 73 194 0
-74 22 -194 0
-28 73 195 0
-74 -22 -195 0
28 -73 196 0
-74 -22 -196 0
-28 -73 197 0
-74 22 -197 0
-28 -73 198 0
74 -22 -198 0
28 -73 199 0
74 22 -199 0
-28 73 200 0
74 22 -200 0
28 73 201 0
74 -22 -201 0
29 75 202 0
-76 23 -202 0
-29 75 203 0
-76 -23 -203 0
29 -75 204 0
-76 -23 -204 0
-29 -75 205 0
-76 23 -205 0
-29 -75 206 0
76 -23 -206 0
29 -75 207 0
76 23 -207 0
-29 75 208 0
76 23 -208 0
29 75 209 0
76 -23 -209 0
39 81 210 0
-82 33 -210 0
-39 81 211 0
-82 -33 -211 0
39 -81 212 0
-82 -33 -212 0
-39 -81 213 0
-82 33 -213 0
-39 -81 214 0
82 -33 -214 0
39 -81 215 0
82 33 -215 0
-39 81 216 0
82 33 -216 0
39 81 217 0
82 -33 -217 0
40 83 218 0
-84 34 -218 0
-40 83 219 0
-84 -34 -219 0
40 -83 220 0
-84 -34 -220 0
-40 -83 221 0
-84 34 -221 0
-40 -83 222 0
84 -34 -222 0
40 -83 223 0
84 34 -223 0
-40 83 224 0
84 34 -224 0
40 83 225 0
84 -34 -225 0
41 85 226 0
-86 35 -226 0
-41 85 227 0
-86 -35 -227 0
41 -85 228 0
-86 -35 -228 0
-41 -85 229 0
-86 35 -229 0
-41 -85 230 0
86 -35 -230 0
41 -85 231 0
86 35 -231 0
-41 85 232 0
86 35 -232 0
41 85 233 0
86 -35 -233 0
42 87 234 0
-88 36 -234 0
-42 87 235 0
-88 -36 -235 0
42 -87 236 0
-88 -36 -236 0
-42 -87 237 0
-88 36 -237 0
-42 -87 238 0
88 -36 -238 0
42 -87 239 0
88 36 -239 0
-42 87 240 0
88 36 -240 0
42 87 241 0
88 -36 -241 0
43 89 242 0
-90 37 -242 0
-43 89 243 0
-90 -37 -243 0
43 -89 244 0
-90 -37 -244 0
-43 -89 245 0
-90 37 -245 0
-43 -89 246 0
90 -37 -246 0
43 -89 247 0
90 37 -247 0
-43 89 248 0
90 37 -248 0
43 89 249 0
90 -37 -249 0
53 95 250 0
-96 47 -250 0
-53 95 251 0
-96 -47 -251 0
53 -95 252 0
-96 -47 -252 0
-53 -95 253 0
-96 47 -253 0
-53 -95 254 0
96 -47 -254 0
53 -95 255 0
96 47 -255 0
-53 95 256 0
96 47 -256 0
53 95 257 0
96 -47 -257 0
54 97 258 0
-98 48 -258 0
-54 97 259 0
-98 -48 -259 0
54 -97 260 0
-98 -48 -260 0
-54 -97 261 0
-98 48 -261 0
-54 -97 262 0
98 -48 -262 0
54 -97 263 0
98 48 -263 0
-54 97 264 0
98 48 -264 0
54 97 265 0
98 -48 -265 0
55 99 266 0
-100 49 -266 0
-55 99 267 0
-100 -49 -267 0
55 -99 268 0
-100 -49 -268 0
-55 -99 269 0
-100 49 -269 0
-55 -99 270 0
100 -49 -270 0
55 -99 271 0
100 49 -271 0
-55 99 272 0
100 49 -272 0
55 99 273 0
100 -49 -273 0
56 101 274 0
-102 50 -274 0
-56 101 275 0
-102 -50 -275 0
56 -101 276 0
-102 -50 -276 0
-56 -101 277 0
-102 50 -277 0
-56 -101 278 0
102 -50 -278 0
56 -101 279 0
102 50 -279 0
-56 101 280 0
102 50 -280 0
56 101 281 0
102 -50 -281 0
57 103 282 0
-104 51 -282 0
-57 103 283 0
-104 -51 -283 0
57 -103 284 0
-104 -51 -284 0
-57 -103 285 0
-104 51 -285 0
-57 -103 286 0
104 -51 -286 0
57 -103 287 0
104 51 -287 0
-57 103 288 0
104 51 -288 0
57 103 289 0
104 -51 -289 0
60 109 290 0
-110 78 -290 0
-60 109 291 0
-110 -78 -291 0
60 -109 292 0
-110 -78 -292 0
-60 -109 293 0
-110 78 -293 0
-60 -109 294 0
110 -78 -294 0
60 -109 295 0
110 78 -295 0
-60 109 296 0
110 78 -296 0
60 109 297 0
110 -78 -297 0
61 111 298 0
-112 79 -298 0
-61 111 299 0
-112 -79 -299 0
61 -111 300 0
-112 -79 -300 0
-61 -111 301 0
-112 79 -301 0
-61 -111 302 0
112 -79 -302 0
61 -111 303 0
112 79 -303 0
-61 111 304 0
112 79 -304 0
61 111 305 0
112 -79 -305 0
94 123 306 0
-124 84 -306 0
-94 123 307 0
-124 -84 -307 0
94 -123 308 0
-124 -84 -308 0
-94 -123 309 0
-124 84 -309 0
-94 -123 310 0
124 -84 -310 0
94 -123 311 0
124 84 -311 0
-94 123 312 0
124 84 -312 0
94 123 313 0
124 -84 -313 0
96 125 314 0
-126 86 -314 0
-96 125 315 0
-126 -86 -315 0
96 -125 316 0
-126 -86 -316 0
-96 -125 317 0
-126 86 -317 0
-96 -125 318 0
126 -86 -318 0
96 -125 319 0
126 86 -319 0
-96 125 320 0
126 86 -320 0
96 125 321 0
126 -86 -321 0
98 127 322 0
-128 88 -322 0
-98 127 323 0
-128 -88 -323 0
98 -127 324 0
-128 -88 -324 0
-98 -127 325 0
-128 88 -325 0
-98 -127 326 0
128 -88 -326 0
98 -127 327 0
128 88 -327 0
-98 127 328 0
128 88 -328 0
98 127 329 0
128 -88 -329 0
100 129 330 0
-130 90 -330 0
-100 129 331 0
-130 -90 -331 0
100 -129 332 0
-130 -90 -332 0
-100 -129 333 0
-130 90 -333 0
-100 -129 334 0
130 -90 -334 0
100 -129 335 0
130 90 -335 0
-100 129 336 0
130 90 -336 0
100 129 337 0
130 -90 -337 0
102 131 338 0
-132 92 -338 0
-102 131 339 0
-132 -92 -339 0
102 -131 340 0
-132 -92 -340 0
-102 -131 341 0
-132 92 -341 0
-102 -131 342 0
132 -92 -342 0
102 -131 343 0
132 92 -343 0
-102 131 344 0
132 92 -344 0
102 131 345 0
132 -92 -345 0
104 133 346 0
-134 93 -346 0
-104 133 347 0
-134 -93 -347 0
104 -133 348 0
-134 -93 -348 0
-104 -133 349 0
-134 93 -349 0
-104 -133 350 0
134 -93 -350 0
104 -133 351 0
134 93 -351 0
-104 133 352 0
134 93 -352 0
104 133 353 0
134 -93 -353 0
80 141 354 0
-142 70 -354 0
-80 141 355 0
-142 -70 -355 0
80 -141 356 0
-142 -70 -356 0
-80 -141 357 0
-142 70 -357 0
-80 -141 358 0
142 -70 -358 0
80 -141 359 0
142 70 -359 0
-80 141 360 0
142 70 -360 0
80 141 361 0
142 -70 -361 0
122 143 362 0
-144 72 -362 0
-122 143 363 0
-144 -72 -363 0
122 -143 364 0
-144 -72 -364 0
-122 -143 365 0
-144 72 -365 0
-122 -143 366 0
144 -72 -366 0
122 -143 367 0
144 72 -367 0
-122 143 368 0
144 72 -368 0
122 143 369 0
144 -72 -369 0
124 145 370 0
-146 74 -370 0
-124 145 371 0
-146 -74 -371 0
124 -145 372 0
-146 -74 -372 0
-124 -145 373 0
-146 74 -373 0
-124 -145 374 0
146 -74 -374 0
124 -145 375 0
146 74 -375 0
-124 145 376 0
146 74 -376 0
124 145 377 0
146 -74 -377 0
126 147 378 0
-148 108 -378 0
-126 147 379 0
-148 -108 -379 0
126 -147 380 0
-148 -108 -380 0
-126 -147 381 0
-148 108 -381 0
-126 -147 382 0
148 -108 -382 0
126 -147 383 0
148 108 -383 0
-126 147 384 0
148 108 -384 0
126 147 385 0
148 -108 -385 0
128 149 386 0
-150 110 -386 0
-128 149 387 0
-150 -110 -387 0
128 -149 388 0
-150 -110 -388 0
-128 -149 389 0
-150 110 -389 0
-128 -149 390 0
150 -110 -390 0
128 -149 391 0
150 110 -391 0
-128 149 392 0
150 110 -392 0
128 149 393 0
150 -110 -393 0
130 151 394 0
-152 112 -394 0
-130 151 395 0
-152 -112 -395 0
130 -151 396 0
-152 -112 -396 0
-130 -151 397 0
-152 112 -397 0
-130 -151 398 0
152 -112 -398 0
130 -151 399 0
152 112 -399 0
-130 151 400 0
152 112 -400 0
130 151 401 0
152 -112 -401 0
132 153 402 0
-154 114 -402 0
-132 153 403 0
-154 -114 -403 0
132 -153 404 0
-154 -114 -404 0
-132 -153 405 0
-154 114 -405 0
-132 -153 406 0
154 -114 -406 0
132 -153 407 0
154 114 -407 0
-132 153 408 0
154 114 -408 0
132 153 409 0
154 -114 -409 0
134 155 410 0
-156 116 -410 0
-134 155 411 0
-156 -116 -411 0
134 -155 412 0
-156 -116 -412 0
-134 -155 413 0
-156 116 -413 0
-134 -155 414 0
156 -116 -414 0
134 -155 415 0
156 116 -415 0
-134 155 416 0
156 116 -416 0
134 155 417 0
156 -116 -417 0
136 157 418 0
-158 118 -418 0
-136 157 419 0
-158 -118 -419 0
136 -157 420 0
-158 -118 -420 0
-136 -157 421 0
-158 118 -421 0
-136 -157 422 0
158 -118 -422 0
136 -157 423 0
158 118 -423 0
-136 157 424 0
158 118 -424 0
136 157 425 0
158 -118 -425 0
138 159 426 0
-160 120 -426 0
-138 159 427 0
-160 -120 -427 0
138 -159 428 0
-160 -120 -428 0
-138 -159 429 0
-160 120 -429 0
-138 -159 430 0
160 -120 -430 0
138 -159 431 0
160 120 -431 0
-138 159 432 0
160 120 -432 0
138 159 433 0
160 -120 -433 0
139 161 434 0
-162 121 -434 0
-139 161 435 0
-162 -121 -435 0
139 -161 436 0
-162 -121 -436 0
-139 -161 437 0
-162 121 -437 0
-139 -161 438 0
162 -121 -438 0
139 -161 439 0
162 121 -439 0
-139 161 440 0
162 121 -440 0
139 161 441 0
162 -121 -441 0
